p cnf 20 15
9 -19 14 4 6 0
17 -4 -20 19 13 0
-18 1 16 10 -20 0
1 -12 -7 -3 6 0
14 2 1 8 -13 0
-5 20 9 7 1 0
-14 -9 4 -20 -15 0
-13 1 19 7 -14 0
-13 7 8 -10 9 0
8 -12 2 11 -4 0
-18 9 -20 16 11 0
-14 -11 -16 -18 10 0
-13 -9 -16 3 -19 0
7 -5 4 -11 8 0
-6 1 -18 -7 -2 0
